Ordonnancement/plne/source/petit_instance/3job/3job_13.dat
data;
param nombreJob := 3;
param nombreRessource := 3;
param duree := 1 7 2 8 3 8;
param capaciteRessource := 1 5 2 13 3 19;
param besoinRessource : 1 2 3 :=
                    1   3 2 3
                    2   3 2 1
                    3   4 2 7;
end;

