Ordonnancement/plne/source/glpk_resultat/3job/3job_13.sol
Problem:    glpsolRcpsp
Rows:       205
Columns:    70 (69 integer, 69 binary)
Non-zeros:  1234
Status:     INTEGER OPTIMAL
Objective:  obj = 23 (MINimum)

   No.   Row name        Activity     Lower bound   Upper bound
------ ------------    ------------- ------------- -------------
     1 periode[1]                  7             7             = 
     2 periode[2]                  8             8             = 
     3 periode[3]                  8             8             = 
     4 complet[1,1]                5                           7 
     5 complet[1,2]                4                           7 
     6 complet[1,3]                3                           7 
     7 complet[1,4]                2                           7 
     8 complet[1,5]                1                           7 
     9 complet[1,6]                0                           7 
    10 complet[1,7]                7                           7 
    11 complet[1,8]                0                           7 
    12 complet[1,9]                0                           7 
    13 complet[1,10]
                                   0                           7 
    14 complet[1,11]
                                   0                           7 
    15 complet[1,12]
                                   0                           7 
    16 complet[1,13]
                                   0                           7 
    17 complet[1,14]
                                   0                           7 
    18 complet[1,15]
                                   0                           7 
    19 complet[1,16]
                                   0                           7 
    20 complet[1,17]
                                   0                           7 
    21 complet[1,18]
                                   0                           7 
    22 complet[1,19]
                                   0                           7 
    23 complet[1,20]
                                   0                           7 
    24 complet[1,21]
                                   0                           7 
    25 complet[2,1]                8                           8 
    26 complet[2,2]                8                           8 
    27 complet[2,3]                8                           8 
    28 complet[2,4]                8                           8 
    29 complet[2,5]                8                           8 
    30 complet[2,6]                8                           8 
    31 complet[2,7]                8                           8 
    32 complet[2,8]                8                           8 
    33 complet[2,9]                8                           8 
    34 complet[2,10]
                                   8                           8 
    35 complet[2,11]
                                   8                           8 
    36 complet[2,12]
                                   8                           8 
    37 complet[2,13]
                                   8                           8 
    38 complet[2,14]
                                   8                           8 
    39 complet[2,15]
                                  -1                           8 
    40 complet[2,16]
                                   6                           8 
    41 complet[2,17]
                                   5                           8 
    42 complet[2,18]
                                   4                           8 
    43 complet[2,19]
                                   3                           8 
    44 complet[2,20]
                                   2                           8 
    45 complet[2,21]
                                   1                           8 
    46 complet[3,1]                8                           8 
    47 complet[3,2]                8                           8 
    48 complet[3,3]                8                           8 
    49 complet[3,4]                8                           8 
    50 complet[3,5]                8                           8 
    51 complet[3,6]                8                           8 
    52 complet[3,7]               -1                           8 
    53 complet[3,8]                6                           8 
    54 complet[3,9]                5                           8 
    55 complet[3,10]
                                   4                           8 
    56 complet[3,11]
                                   3                           8 
    57 complet[3,12]
                                   2                           8 
    58 complet[3,13]
                                   1                           8 
    59 complet[3,14]
                                   0                           8 
    60 complet[3,15]
                                   8                           8 
    61 complet[3,16]
                                   0                           8 
    62 complet[3,17]
                                   0                           8 
    63 complet[3,18]
                                   0                           8 
    64 complet[3,19]
                                   0                           8 
    65 complet[3,20]
                                   0                           8 
    66 complet[3,21]
                                   0                           8 
    67 cmax[1,1]                  22            -0               
    68 cmax[1,2]                  21            -0               
    69 cmax[1,3]                  20            -0               
    70 cmax[1,4]                  19            -0               
    71 cmax[1,5]                  18            -0               
    72 cmax[1,6]                  17            -0               
    73 cmax[1,7]                  16            -0               
    74 cmax[1,8]                  23            -0               
    75 cmax[1,9]                  23            -0               
    76 cmax[1,10]                 23            -0               
    77 cmax[1,11]                 23            -0               
    78 cmax[1,12]                 23            -0               
    79 cmax[1,13]                 23            -0               
    80 cmax[1,14]                 23            -0               
    81 cmax[1,15]                 23            -0               
    82 cmax[1,16]                 23            -0               
    83 cmax[1,17]                 23            -0               
    84 cmax[1,18]                 23            -0               
    85 cmax[1,19]                 23            -0               
    86 cmax[1,20]                 23            -0               
    87 cmax[1,21]                 23            -0               
    88 cmax[1,22]                 23            -0               
    89 cmax[1,23]                 23            -0               
    90 cmax[2,1]                  23            -0               
    91 cmax[2,2]                  23            -0               
    92 cmax[2,3]                  23            -0               
    93 cmax[2,4]                  23            -0               
    94 cmax[2,5]                  23            -0               
    95 cmax[2,6]                  23            -0               
    96 cmax[2,7]                  23            -0               
    97 cmax[2,8]                  23            -0               
    98 cmax[2,9]                  23            -0               
    99 cmax[2,10]                 23            -0               
   100 cmax[2,11]                 23            -0               
   101 cmax[2,12]                 23            -0               
   102 cmax[2,13]                 23            -0               
   103 cmax[2,14]                 23            -0               
   104 cmax[2,15]                 23            -0               
   105 cmax[2,16]                  7            -0               
   106 cmax[2,17]                  6            -0               
   107 cmax[2,18]                  5            -0               
   108 cmax[2,19]                  4            -0               
   109 cmax[2,20]                  3            -0               
   110 cmax[2,21]                  2            -0               
   111 cmax[2,22]                  1            -0               
   112 cmax[2,23]                  0            -0               
   113 cmax[3,1]                  23            -0               
   114 cmax[3,2]                  23            -0               
   115 cmax[3,3]                  23            -0               
   116 cmax[3,4]                  23            -0               
   117 cmax[3,5]                  23            -0               
   118 cmax[3,6]                  23            -0               
   119 cmax[3,7]                  23            -0               
   120 cmax[3,8]                  15            -0               
   121 cmax[3,9]                  14            -0               
   122 cmax[3,10]                 13            -0               
   123 cmax[3,11]                 12            -0               
   124 cmax[3,12]                 11            -0               
   125 cmax[3,13]                 10            -0               
   126 cmax[3,14]                  9            -0               
   127 cmax[3,15]                  8            -0               
   128 cmax[3,16]                 23            -0               
   129 cmax[3,17]                 23            -0               
   130 cmax[3,18]                 23            -0               
   131 cmax[3,19]                 23            -0               
   132 cmax[3,20]                 23            -0               
   133 cmax[3,21]                 23            -0               
   134 cmax[3,22]                 23            -0               
   135 cmax[3,23]                 23            -0               
   136 ressource[1,1]
                                   3                           5 
   137 ressource[1,2]
                                   3                           5 
   138 ressource[1,3]
                                   3                           5 
   139 ressource[1,4]
                                   3                           5 
   140 ressource[1,5]
                                   3                           5 
   141 ressource[1,6]
                                   3                           5 
   142 ressource[1,7]
                                   3                           5 
   143 ressource[1,8]
                                   4                           5 
   144 ressource[1,9]
                                   4                           5 
   145 ressource[1,10]
                                   4                           5 
   146 ressource[1,11]
                                   4                           5 
   147 ressource[1,12]
                                   4                           5 
   148 ressource[1,13]
                                   4                           5 
   149 ressource[1,14]
                                   4                           5 
   150 ressource[1,15]
                                   4                           5 
   151 ressource[1,16]
                                   3                           5 
   152 ressource[1,17]
                                   3                           5 
   153 ressource[1,18]
                                   3                           5 
   154 ressource[1,19]
                                   3                           5 
   155 ressource[1,20]
                                   3                           5 
   156 ressource[1,21]
                                   3                           5 
   157 ressource[1,22]
                                   3                           5 
   158 ressource[1,23]
                                   3                           5 
   159 ressource[2,1]
                                   2                          13 
   160 ressource[2,2]
                                   2                          13 
   161 ressource[2,3]
                                   2                          13 
   162 ressource[2,4]
                                   2                          13 
   163 ressource[2,5]
                                   2                          13 
   164 ressource[2,6]
                                   2                          13 
   165 ressource[2,7]
                                   2                          13 
   166 ressource[2,8]
                                   2                          13 
   167 ressource[2,9]
                                   2                          13 
   168 ressource[2,10]
                                   2                          13 
   169 ressource[2,11]
                                   2                          13 
   170 ressource[2,12]
                                   2                          13 
   171 ressource[2,13]
                                   2                          13 
   172 ressource[2,14]
                                   2                          13 
   173 ressource[2,15]
                                   2                          13 
   174 ressource[2,16]
                                   2                          13 
   175 ressource[2,17]
                                   2                          13 
   176 ressource[2,18]
                                   2                          13 
   177 ressource[2,19]
                                   2                          13 
   178 ressource[2,20]
                                   2                          13 
   179 ressource[2,21]
                                   2                          13 
   180 ressource[2,22]
                                   2                          13 
   181 ressource[2,23]
                                   2                          13 
   182 ressource[3,1]
                                   3                          19 
   183 ressource[3,2]
                                   3                          19 
   184 ressource[3,3]
                                   3                          19 
   185 ressource[3,4]
                                   3                          19 
   186 ressource[3,5]
                                   3                          19 
   187 ressource[3,6]
                                   3                          19 
   188 ressource[3,7]
                                   3                          19 
   189 ressource[3,8]
                                   7                          19 
   190 ressource[3,9]
                                   7                          19 
   191 ressource[3,10]
                                   7                          19 
   192 ressource[3,11]
                                   7                          19 
   193 ressource[3,12]
                                   7                          19 
   194 ressource[3,13]
                                   7                          19 
   195 ressource[3,14]
                                   7                          19 
   196 ressource[3,15]
                                   7                          19 
   197 ressource[3,16]
                                   1                          19 
   198 ressource[3,17]
                                   1                          19 
   199 ressource[3,18]
                                   1                          19 
   200 ressource[3,19]
                                   1                          19 
   201 ressource[3,20]
                                   1                          19 
   202 ressource[3,21]
                                   1                          19 
   203 ressource[3,22]
                                   1                          19 
   204 ressource[3,23]
                                   1                          19 
   205 obj                        23                             

   No. Column name       Activity     Lower bound   Upper bound
------ ------------    ------------- ------------- -------------
     1 x[1,1]       *              1             0             1 
     2 x[1,2]       *              1             0             1 
     3 x[1,3]       *              1             0             1 
     4 x[1,4]       *              1             0             1 
     5 x[1,5]       *              1             0             1 
     6 x[1,6]       *              1             0             1 
     7 x[1,7]       *              1             0             1 
     8 x[1,8]       *              0             0             1 
     9 x[1,9]       *              0             0             1 
    10 x[1,10]      *              0             0             1 
    11 x[1,11]      *              0             0             1 
    12 x[1,12]      *              0             0             1 
    13 x[1,13]      *              0             0             1 
    14 x[1,14]      *              0             0             1 
    15 x[1,15]      *              0             0             1 
    16 x[1,16]      *              0             0             1 
    17 x[1,17]      *              0             0             1 
    18 x[1,18]      *              0             0             1 
    19 x[1,19]      *              0             0             1 
    20 x[1,20]      *              0             0             1 
    21 x[1,21]      *              0             0             1 
    22 x[1,22]      *              0             0             1 
    23 x[1,23]      *              0             0             1 
    24 x[2,1]       *              0             0             1 
    25 x[2,2]       *              0             0             1 
    26 x[2,3]       *              0             0             1 
    27 x[2,4]       *              0             0             1 
    28 x[2,5]       *              0             0             1 
    29 x[2,6]       *              0             0             1 
    30 x[2,7]       *              0             0             1 
    31 x[2,8]       *              0             0             1 
    32 x[2,9]       *              0             0             1 
    33 x[2,10]      *              0             0             1 
    34 x[2,11]      *              0             0             1 
    35 x[2,12]      *              0             0             1 
    36 x[2,13]      *              0             0             1 
    37 x[2,14]      *              0             0             1 
    38 x[2,15]      *              0             0             1 
    39 x[2,16]      *              1             0             1 
    40 x[2,17]      *              1             0             1 
    41 x[2,18]      *              1             0             1 
    42 x[2,19]      *              1             0             1 
    43 x[2,20]      *              1             0             1 
    44 x[2,21]      *              1             0             1 
    45 x[2,22]      *              1             0             1 
    46 x[2,23]      *              1             0             1 
    47 x[3,1]       *              0             0             1 
    48 x[3,2]       *              0             0             1 
    49 x[3,3]       *              0             0             1 
    50 x[3,4]       *              0             0             1 
    51 x[3,5]       *              0             0             1 
    52 x[3,6]       *              0             0             1 
    53 x[3,7]       *              0             0             1 
    54 x[3,8]       *              1             0             1 
    55 x[3,9]       *              1             0             1 
    56 x[3,10]      *              1             0             1 
    57 x[3,11]      *              1             0             1 
    58 x[3,12]      *              1             0             1 
    59 x[3,13]      *              1             0             1 
    60 x[3,14]      *              1             0             1 
    61 x[3,15]      *              1             0             1 
    62 x[3,16]      *              0             0             1 
    63 x[3,17]      *              0             0             1 
    64 x[3,18]      *              0             0             1 
    65 x[3,19]      *              0             0             1 
    66 x[3,20]      *              0             0             1 
    67 x[3,21]      *              0             0             1 
    68 x[3,22]      *              0             0             1 
    69 x[3,23]      *              0             0             1 
    70 z                          23                             

Integer feasibility conditions:

KKT.PE: max.abs.err = 0.00e+00 on row 0
        max.rel.err = 0.00e+00 on row 0
        High quality

KKT.PB: max.abs.err = 0.00e+00 on row 0
        max.rel.err = 0.00e+00 on row 0
        High quality

End of output
